NAME : tsp25_29.185.tour
COMMENT : Length = 185
COMMENT : Found by LKH [Keld Helsgaun]
TYPE : TOUR
DIMENSION : 25
TOUR_SECTION
1
23
18
8
7
5
13
16
9
17
10
19
3
12
11
21
25
22
2
6
20
4
14
15
24
-1
EOF
